(declare-fun bvlambda_11_ ()Bool         )
(declare-fun bvlambda_20_ ()Bool         )
(declare-fun bvlambda_21_ ()Bool         )
(declare-fun bvlambda_22_ () (_ BitVec 5))
(declare-fun bvlambda_23_ ()Bool         )
(declare-fun bvlambda_24_ ()Bool         )
(declare-fun a88 () (Array (_ BitVec 1) (_ BitVec 12)))
(assert
(let (($e1 false    ))
(let (($e12 (_ bv0 12)))
(let (($e15 (_ bv0 5)))
(let (($e16 (_ bv54 6)))
(let (($e18 false    ))
(let (($e21 (_ bv0 10)))
(let (($e92                $e18               ))
(let (($e93         $e92              ))
(let (($e98 false                            ))
(let (($e103 (concat        $e15  bvlambda_20_)))
(let (($e104 (concat $e103 bvlambda_21_)))
(let (($e105 (concat $e104 bvlambda_22_)))
(let (($e106                           $e105       ))
(let (($e107                    $e98 ))
(let (($e108 (store a88 $e107 $e106)))
(let (($e115        $e108                          ))
(let (($e116 (select $e115 bvlambda_11_)))
(let (($e117 (   extract      $e116)))
(let (($e139               $e117          ))
(let (($e142              $e139 ))
(let (($e143               $e142        ))
(let (($e152                        #b0 ))
(let (($e153      (= $e152        $e143 )         ))
(let (($e169                      $e153 ))
(let (($e194 (select $e108 true       )))
(let (($e197 (   extract        $e194)))
(let (($e200 (concat $e21 bvlambda_23_)))
(let (($e201 (concat $e200 bvlambda_24_)))
(let (($e204 (concat        $e15  bvlambda_23_)))
(let (($e205         $e204              ))
(let (($e206                           $e205       ))
(let (($e207                  $e206 ))
(let (($e208      (bvult $e207        $e16 )         ))
(let (($e210              $e208 ))
(let (($e211 (store a88 $e1        $e12 )))
(let (($e212 (select $e211        $e210 )))
(let (($e213      (bvult $e212 $e201)         ))
(let (($e214               $e213        ))
(let (($e258                             $e214  ))
(let (($e265               $e197                ))
(let (($e266               $e265                ))
(let (($e267 (bvand $e266        $e258 )))
(let (($e274               $e267          ))
(let (($e277                      $e274 ))
                  (=        $e277  $e169)
                                                                                                                                                                                                                                                                                                                                                                                                                                                                                                                        )  )      )))      )                                           ))))) )))))  ))  )  )                        )               ))        ))  )                     )))      ))))))    )    ))                                            )  ) ))  )          ))
